
  22   10
  10   10   10   10   10   10   10   10   10   10

   0   0   0   0   0   0   0   0   0   0   0   7 2 3 4 5 6 7 21 
   7   0   0   0   0   0  10   0   0   0   0   5 20 19 12 9 8 
   9   0   0   0  10   0   0   0   0   0   0   5 18 17 13 12 9 
  10   0   0   0   0   0   0   0  10   0   0   4 15 11 10 8 
   6   0   0  10   0   0   0   0   0   0   0   4 16 11 9 8 
   9   0   0   0   0  10   0   0   0   0   0   3 14 10 8 
   7   0   0   0  10   0   0   0   0   0   0   3 13 11 10 
   5   0   0  10   0   0   0   0   0   0   0   1 22
  10   0   0   0   0   0   0   0   0   0  10   1 22
   7   0   0   0   0   0   0   0   0   0  10   1 22
   2   0   0   0   0   0   0   0   0  10   0   1 22
  10  10   0   0   0   0   0   0   0   0   0   1 22
   4   0   0  10   0   0   0   0   0   0   0   1 22
   6   0   0   0   0   0   0   0  10   0   0   1 22
   6   0   0  10   0   0   0   0   0   0   0   1 22
   2   0   0  10   0   0   0   0   0   0   0   1 22
   8   0   0   0   0   0  10   0   0   0   0   1 22
   1   0   0   0   0   0  10   0   0   0   0   1 22
   9   0   0   0  10   0   0   0   0   0   0   1 22
   3   0   0   0   0   0   0   0   0  10   0   1 22
   8   0   0   0  10   0   0   0   0   0   0   1 22
   0   0   0   0   0   0   0   0   0   0   0   0 
